(set-logic ALL)
(declare-fun seed0_T_1 () Int)
(declare-fun seed0_T_2 () Bool)
(declare-fun seed0_T_3 () Bool)
(declare-fun seed0_var_0xINPUT_515359 () String)
(assert (and (or (>= seed0_T_1 (str.len seed0_var_0xINPUT_515359)) (and (>= (* seed0_T_1 seed0_T_1) (* seed0_T_1 seed0_T_1)) (> (div seed0_T_1 seed0_T_1) (* seed0_T_1 seed0_T_1)))) (or (= seed0_T_2 (= seed0_T_1 0)) (distinct (* seed0_T_1 seed0_T_1) (mod seed0_T_1 seed0_T_1))) (or (= seed0_T_3 (not seed0_T_2)) (distinct (div seed0_T_1 seed0_T_1) (- seed0_T_1 (- 847)))) (or seed0_T_3 (and (distinct (mod seed0_T_1 seed0_T_1) (+ seed0_T_1 98)) (< (div seed0_T_1 seed0_T_1) (- seed0_T_1 845))))))
(check-sat)
(exit)